0.0,0.0
16.0,5.0
6.0,12.0
28.0,-10.0
-10.0,6.0
19.0,-13.0
-2.0,-3.0
18.0,22.0
7.0,14.0
21.0,-16.0
36.0,10.0
7.0,-8.0
-4.0,19.0
-9.0,13.0
35.0,-5.0
-7.0,11.0
23.0,-3.0
25.0,-6.0
5.0,-12.0
10.0,-11.0
26.0,-15.0
20.0,2.0
-8.0,8.0
30.0,18.0
-5.0,16.0
-1.0,1.0
11.0,10.0
-6.0,-5.0
3.0,17.0
15.0,-20.0
